VRPTWMS/instances/mip/freight/5/N5-C_DV10-C_SV50_F12_15_No_1.lp
\ N5-C_DV10-C_SV50_F12_15

Minimize
  11.66 x_d0_c1 + 11.66 z_d0_c1 + 13.15 x_d0_c2 + 13.15 z_d0_c2 + 29.7 x_d0_c3 + 29.7 z_d0_c3 + 19.24 x_d0_c4 + 19.24 z_d0_c4 + 22.36 x_d0_c5 + 22.36 z_d0_c5 + 22.47 x_c1_c2 + 22.47 x_c2_c1 + 22.47 z_c1_c2 + 22.47 z_c2_c1 + 29.15 x_c1_c3 + 29.15 x_c3_c1 + 29.15 z_c1_c3 + 29.15 z_c3_c1 + 14.76 x_c1_c4 + 14.76 x_c4_c1 + 14.76 z_c1_c4 + 14.76 z_c4_c1 + 14.0 x_c1_c5 + 14.0 x_c5_c1 + 14.0 z_c1_c5 + 14.0 z_c5_c1 + 24.35 x_c2_c3 + 24.35 x_c3_c2 + 24.35 z_c2_c3 + 24.35 z_c3_c2 + 32.39 x_c2_c4 + 32.39 x_c4_c2 + 32.39 z_c2_c4 + 32.39 z_c4_c2 + 35.11 x_c2_c5 + 35.11 x_c5_c2 + 35.11 z_c2_c5 + 35.11 z_c5_c2 + 43.86 x_c3_c4 + 43.86 x_c4_c3 + 43.86 z_c3_c4 + 43.86 z_c4_c3 + 42.45 x_c3_c5 + 42.45 x_c5_c3 + 42.45 z_c3_c5 + 42.45 z_c5_c3 + 7.07 x_c4_c5 + 7.07 x_c5_c4 + 7.07 z_c4_c5 + 7.07 z_c5_c4 + 11.66 x_c1_dN + 11.66 z_c1_dN + 13.15 x_c2_dN + 13.15 z_c2_dN + 29.7 x_c3_dN + 29.7 z_c3_dN + 19.24 x_c4_dN + 19.24 z_c4_dN + 22.36 x_c5_dN + 22.36 z_c5_dN + 1000.0 x_d0_c1 + 1000.0 z_d0_c1 + 1000.0 x_d0_c2 + 1000.0 z_d0_c2 + 1000.0 x_d0_c3 + 1000.0 z_d0_c3 + 1000.0 x_d0_c4 + 1000.0 z_d0_c4 + 1000.0 x_d0_c5 + 1000.0 z_d0_c5
Subject To
  Successor_DV_c1: x_c1_c2 + x_c1_c3 + x_c1_c4 + x_c1_c5 + x_c1_dN = 1
  Successor_DV_c2: x_c2_c1 + x_c2_c3 + x_c2_c4 + x_c2_c5 + x_c2_dN = 1
  Successor_DV_c3: x_c3_c1 + x_c3_c2 + x_c3_c4 + x_c3_c5 + x_c3_dN = 1
  Successor_DV_c4: x_c4_c1 + x_c4_c2 + x_c4_c3 + x_c4_c5 + x_c4_dN = 1
  Successor_DV_c5: x_c5_c1 + x_c5_c2 + x_c5_c3 + x_c5_c4 + x_c5_dN = 1
  Successor_SV_c1: z_c1_c2 + z_c1_c3 + z_c1_c4 + z_c1_c5 + z_c1_dN <= 1
  Successor_SV_c2: z_c2_c1 + z_c2_c3 + z_c2_c4 + z_c2_c5 + z_c2_dN <= 1
  Successor_SV_c3: z_c3_c1 + z_c3_c2 + z_c3_c4 + z_c3_c5 + z_c3_dN <= 1
  Successor_SV_c4: z_c4_c1 + z_c4_c2 + z_c4_c3 + z_c4_c5 + z_c4_dN <= 1
  Successor_SV_c5: z_c5_c1 + z_c5_c2 + z_c5_c3 + z_c5_c4 + z_c5_dN <= 1
  Flow_DV_c1: x_d0_c1 + x_c2_c1 + x_c3_c1 + x_c4_c1 + x_c5_c1 - x_c1_dN - x_c1_c2 - x_c1_c3 - x_c1_c4 - x_c1_c5 = 0
  Flow_DV_c2: x_d0_c2 + x_c1_c2 + x_c3_c2 + x_c4_c2 + x_c5_c2 - x_c2_dN - x_c2_c1 - x_c2_c3 - x_c2_c4 - x_c2_c5 = 0
  Flow_DV_c3: x_d0_c3 + x_c1_c3 + x_c2_c3 + x_c4_c3 + x_c5_c3 - x_c3_dN - x_c3_c1 - x_c3_c2 - x_c3_c4 - x_c3_c5 = 0
  Flow_DV_c4: x_d0_c4 + x_c1_c4 + x_c2_c4 + x_c3_c4 + x_c5_c4 - x_c4_dN - x_c4_c1 - x_c4_c2 - x_c4_c3 - x_c4_c5 = 0
  Flow_DV_c5: x_d0_c5 + x_c1_c5 + x_c2_c5 + x_c3_c5 + x_c4_c5 - x_c5_dN - x_c5_c1 - x_c5_c2 - x_c5_c3 - x_c5_c4 = 0
  Flow_SV_c1: z_d0_c1 + z_c2_c1 + z_c3_c1 + z_c4_c1 + z_c5_c1 - z_c1_dN - z_c1_c2 - z_c1_c3 - z_c1_c4 - z_c1_c5 = 0
  Flow_SV_c2: z_d0_c2 + z_c1_c2 + z_c3_c2 + z_c4_c2 + z_c5_c2 - z_c2_dN - z_c2_c1 - z_c2_c3 - z_c2_c4 - z_c2_c5 = 0
  Flow_SV_c3: z_d0_c3 + z_c1_c3 + z_c2_c3 + z_c4_c3 + z_c5_c3 - z_c3_dN - z_c3_c1 - z_c3_c2 - z_c3_c4 - z_c3_c5 = 0
  Flow_SV_c4: z_d0_c4 + z_c1_c4 + z_c2_c4 + z_c3_c4 + z_c5_c4 - z_c4_dN - z_c4_c1 - z_c4_c2 - z_c4_c3 - z_c4_c5 = 0
  Flow_SV_c5: z_d0_c5 + z_c1_c5 + z_c2_c5 + z_c3_c5 + z_c4_c5 - z_c5_dN - z_c5_c1 - z_c5_c2 - z_c5_c3 - z_c5_c4 = 0
  travelDV_d0_c1: tauD_d0 - tauD_c1 + 102.915 x_d0_c1 <= 100.0
  travelDV_d0_c2: tauD_d0 - tauD_c2 + 103.2875 x_d0_c2 <= 100.0
  travelDV_d0_c3: tauD_d0 - tauD_c3 + 107.425 x_d0_c3 <= 100.0
  travelDV_d0_c4: tauD_d0 - tauD_c4 + 104.81 x_d0_c4 <= 100.0
  travelDV_d0_c5: tauD_d0 - tauD_c5 + 105.59 x_d0_c5 <= 100.0
  travelDV_c1_c2: tauD_c1 - tauD_c2 + 109.6175 x_c1_c2 + 8.0 p_1 <= 100.0
  travelDV_c1_c3: tauD_c1 - tauD_c3 + 111.2875 x_c1_c3 + 8.0 p_1 <= 100.0
  travelDV_c1_c4: tauD_c1 - tauD_c4 + 107.69 x_c1_c4 + 8.0 p_1 <= 100.0
  travelDV_c1_c5: tauD_c1 - tauD_c5 + 107.5 x_c1_c5 + 8.0 p_1 <= 100.0
  travelDV_c2_c1: tauD_c2 - tauD_c1 + 109.6175 x_c2_c1 + 8.0 p_2 <= 100.0
  travelDV_c2_c3: tauD_c2 - tauD_c3 + 110.0875 x_c2_c3 + 8.0 p_2 <= 100.0
  travelDV_c2_c4: tauD_c2 - tauD_c4 + 112.0975 x_c2_c4 + 8.0 p_2 <= 100.0
  travelDV_c2_c5: tauD_c2 - tauD_c5 + 112.7775 x_c2_c5 + 8.0 p_2 <= 100.0
  travelDV_c3_c1: tauD_c3 - tauD_c1 + 116.2875 x_c3_c1 + 8.0 p_3 <= 100.0
  travelDV_c3_c2: tauD_c3 - tauD_c2 + 115.0875 x_c3_c2 + 8.0 p_3 <= 100.0
  travelDV_c3_c4: tauD_c3 - tauD_c4 + 119.965 x_c3_c4 + 8.0 p_3 <= 100.0
  travelDV_c3_c5: tauD_c3 - tauD_c5 + 119.6125 x_c3_c5 + 8.0 p_3 <= 100.0
  travelDV_c4_c1: tauD_c4 - tauD_c1 + 110.69 x_c4_c1 + 8.0 p_4 <= 100.0
  travelDV_c4_c2: tauD_c4 - tauD_c2 + 115.0975 x_c4_c2 + 8.0 p_4 <= 100.0
  travelDV_c4_c3: tauD_c4 - tauD_c3 + 117.965 x_c4_c3 + 8.0 p_4 <= 100.0
  travelDV_c4_c5: tauD_c4 - tauD_c5 + 108.7675 x_c4_c5 + 8.0 p_4 <= 100.0
  travelDV_c5_c1: tauD_c5 - tauD_c1 + 111.5 x_c5_c1 + 8.0 p_5 <= 100.0
  travelDV_c5_c2: tauD_c5 - tauD_c2 + 116.7775 x_c5_c2 + 8.0 p_5 <= 100.0
  travelDV_c5_c3: tauD_c5 - tauD_c3 + 118.6125 x_c5_c3 + 8.0 p_5 <= 100.0
  travelDV_c5_c4: tauD_c5 - tauD_c4 + 109.7675 x_c5_c4 + 8.0 p_5 <= 100.0
  TravelSV_d0_c1: tauS_d0 - tauS_c1 + 100.0 z_d0_c1 <= 97.085
  TravelSV_d0_c2: tauS_d0 - tauS_c2 + 100.0 z_d0_c2 <= 96.7125
  TravelSV_d0_c3: tauS_d0 - tauS_c3 + 100.0 z_d0_c3 <= 92.575
  TravelSV_d0_c4: tauS_d0 - tauS_c4 + 100.0 z_d0_c4 <= 95.19
  TravelSV_d0_c5: tauS_d0 - tauS_c5 + 100.0 z_d0_c5 <= 94.41
  TravelSV_d0_dN: tauS_d0 - tauS_dN + 100.0 z_d0_dN <= 100.0
  TravelSV_c1_c2: tauS_c1 - tauS_c2 + 100.0 z_c1_c2 <= 86.3825
  TravelSV_c1_c3: tauS_c1 - tauS_c3 + 100.0 z_c1_c3 <= 84.7125
  TravelSV_c1_c4: tauS_c1 - tauS_c4 + 100.0 z_c1_c4 <= 88.31
  TravelSV_c1_c5: tauS_c1 - tauS_c5 + 100.0 z_c1_c5 <= 88.5
  TravelSV_c1_dN: tauS_c1 - tauS_dN + 100.0 z_c1_dN <= 89.085
  TravelSV_c2_c1: tauS_c2 - tauS_c1 + 100.0 z_c2_c1 <= 86.3825
  TravelSV_c2_c3: tauS_c2 - tauS_c3 + 100.0 z_c2_c3 <= 85.9125
  TravelSV_c2_c4: tauS_c2 - tauS_c4 + 100.0 z_c2_c4 <= 83.9025
  TravelSV_c2_c5: tauS_c2 - tauS_c5 + 100.0 z_c2_c5 <= 83.2225
  TravelSV_c2_dN: tauS_c2 - tauS_dN + 100.0 z_c2_dN <= 88.7125
  TravelSV_c3_c1: tauS_c3 - tauS_c1 + 100.0 z_c3_c1 <= 84.7125
  TravelSV_c3_c2: tauS_c3 - tauS_c2 + 100.0 z_c3_c2 <= 85.9125
  TravelSV_c3_c4: tauS_c3 - tauS_c4 + 100.0 z_c3_c4 <= 81.035
  TravelSV_c3_c5: tauS_c3 - tauS_c5 + 100.0 z_c3_c5 <= 81.3875
  TravelSV_c3_dN: tauS_c3 - tauS_dN + 100.0 z_c3_dN <= 84.575
  TravelSV_c4_c1: tauS_c4 - tauS_c1 + 100.0 z_c4_c1 <= 88.31
  TravelSV_c4_c2: tauS_c4 - tauS_c2 + 100.0 z_c4_c2 <= 83.9025
  TravelSV_c4_c3: tauS_c4 - tauS_c3 + 100.0 z_c4_c3 <= 81.035
  TravelSV_c4_c5: tauS_c4 - tauS_c5 + 100.0 z_c4_c5 <= 90.2325
  TravelSV_c4_dN: tauS_c4 - tauS_dN + 100.0 z_c4_dN <= 87.19
  TravelSV_c5_c1: tauS_c5 - tauS_c1 + 100.0 z_c5_c1 <= 88.5
  TravelSV_c5_c2: tauS_c5 - tauS_c2 + 100.0 z_c5_c2 <= 83.2225
  TravelSV_c5_c3: tauS_c5 - tauS_c3 + 100.0 z_c5_c3 <= 81.3875
  TravelSV_c5_c4: tauS_c5 - tauS_c4 + 100.0 z_c5_c4 <= 90.2325
  TravelSV_c5_dN: tauS_c5 - tauS_dN + 100.0 z_c5_dN <= 86.41
  time_window_c1_e: tauD_c1 + 8.0 o_1 >= 0.0
  time_window_c1_l: tauD_c1 + 8.0 o_1 <= 100.0
  time_window_c2_e: tauD_c2 + 8.0 o_2 >= 45.0
  time_window_c2_l: tauD_c2 + 8.0 o_2 <= 60.0
  time_window_c3_e: tauD_c3 + 8.0 o_3 >= 30.0
  time_window_c3_l: tauD_c3 + 8.0 o_3 <= 45.0
  time_window_c4_e: tauD_c4 + 8.0 o_4 >= 65.0
  time_window_c4_l: tauD_c4 + 8.0 o_4 <= 80.0
  time_window_c5_e: tauD_c5 + 8.0 o_5 >= 0.0
  time_window_c5_l: tauD_c5 + 8.0 o_5 <= 100.0
  SyncA_c1_c2_c2: 4.0 o_1 + 100.0 x_c1_c2 - tauD_c2 - 5.6175 z_c1_c2 + [ tauS_c2 * z_c1_c2 ] <= 94.3825
  SyncA_c1_c2_c3: 4.0 o_1 + 100.0 x_c1_c2 - tauD_c2 - 7.2875 z_c1_c3 + [ tauS_c3 * z_c1_c3 ] <= 94.3825
  SyncA_c1_c2_c4: 4.0 o_1 + 100.0 x_c1_c2 - tauD_c2 - 3.69 z_c1_c4 + [ tauS_c4 * z_c1_c4 ] <= 94.3825
  SyncA_c1_c2_c5: 4.0 o_1 + 100.0 x_c1_c2 - tauD_c2 - 3.5 z_c1_c5 + [ tauS_c5 * z_c1_c5 ] <= 94.3825
  SyncA_c1_c2_dN: 4.0 o_1 + 100.0 x_c1_c2 - tauD_c2 - 2.915 z_c1_dN + [ tauS_dN * z_c1_dN ] <= 94.3825
  SyncA_c1_c3_c2: 4.0 o_1 + 100.0 x_c1_c3 - tauD_c3 - 5.6175 z_c1_c2 + [ tauS_c2 * z_c1_c2 ] <= 92.7125
  SyncA_c1_c3_c3: 4.0 o_1 + 100.0 x_c1_c3 - tauD_c3 - 7.2875 z_c1_c3 + [ tauS_c3 * z_c1_c3 ] <= 92.7125
  SyncA_c1_c3_c4: 4.0 o_1 + 100.0 x_c1_c3 - tauD_c3 - 3.69 z_c1_c4 + [ tauS_c4 * z_c1_c4 ] <= 92.7125
  SyncA_c1_c3_c5: 4.0 o_1 + 100.0 x_c1_c3 - tauD_c3 - 3.5 z_c1_c5 + [ tauS_c5 * z_c1_c5 ] <= 92.7125
  SyncA_c1_c3_dN: 4.0 o_1 + 100.0 x_c1_c3 - tauD_c3 - 2.915 z_c1_dN + [ tauS_dN * z_c1_dN ] <= 92.7125
  SyncA_c1_c4_c2: 4.0 o_1 + 100.0 x_c1_c4 - tauD_c4 - 5.6175 z_c1_c2 + [ tauS_c2 * z_c1_c2 ] <= 96.31
  SyncA_c1_c4_c3: 4.0 o_1 + 100.0 x_c1_c4 - tauD_c4 - 7.2875 z_c1_c3 + [ tauS_c3 * z_c1_c3 ] <= 96.31
  SyncA_c1_c4_c4: 4.0 o_1 + 100.0 x_c1_c4 - tauD_c4 - 3.69 z_c1_c4 + [ tauS_c4 * z_c1_c4 ] <= 96.31
  SyncA_c1_c4_c5: 4.0 o_1 + 100.0 x_c1_c4 - tauD_c4 - 3.5 z_c1_c5 + [ tauS_c5 * z_c1_c5 ] <= 96.31
  SyncA_c1_c4_dN: 4.0 o_1 + 100.0 x_c1_c4 - tauD_c4 - 2.915 z_c1_dN + [ tauS_dN * z_c1_dN ] <= 96.31
  SyncA_c1_c5_c2: 4.0 o_1 + 100.0 x_c1_c5 - tauD_c5 - 5.6175 z_c1_c2 + [ tauS_c2 * z_c1_c2 ] <= 96.5
  SyncA_c1_c5_c3: 4.0 o_1 + 100.0 x_c1_c5 - tauD_c5 - 7.2875 z_c1_c3 + [ tauS_c3 * z_c1_c3 ] <= 96.5
  SyncA_c1_c5_c4: 4.0 o_1 + 100.0 x_c1_c5 - tauD_c5 - 3.69 z_c1_c4 + [ tauS_c4 * z_c1_c4 ] <= 96.5
  SyncA_c1_c5_c5: 4.0 o_1 + 100.0 x_c1_c5 - tauD_c5 - 3.5 z_c1_c5 + [ tauS_c5 * z_c1_c5 ] <= 96.5
  SyncA_c1_c5_dN: 4.0 o_1 + 100.0 x_c1_c5 - tauD_c5 - 2.915 z_c1_dN + [ tauS_dN * z_c1_dN ] <= 96.5
  SyncA_c1_dN_c2: 4.0 o_1 + 100.0 x_c1_dN - tauD_dN - 5.6175 z_c1_c2 + [ tauS_c2 * z_c1_c2 ] <= 97.085
  SyncA_c1_dN_c3: 4.0 o_1 + 100.0 x_c1_dN - tauD_dN - 7.2875 z_c1_c3 + [ tauS_c3 * z_c1_c3 ] <= 97.085
  SyncA_c1_dN_c4: 4.0 o_1 + 100.0 x_c1_dN - tauD_dN - 3.69 z_c1_c4 + [ tauS_c4 * z_c1_c4 ] <= 97.085
  SyncA_c1_dN_c5: 4.0 o_1 + 100.0 x_c1_dN - tauD_dN - 3.5 z_c1_c5 + [ tauS_c5 * z_c1_c5 ] <= 97.085
  SyncA_c1_dN_dN: 4.0 o_1 + 100.0 x_c1_dN - tauD_dN - 2.915 z_c1_dN + [ tauS_dN * z_c1_dN ] <= 97.085
  SyncA_c2_c1_c1: 4.0 o_2 + 100.0 x_c2_c1 - tauD_c1 - 5.6175 z_c2_c1 + [ tauS_c1 * z_c2_c1 ] <= 94.3825
  SyncA_c2_c1_c3: 4.0 o_2 + 100.0 x_c2_c1 - tauD_c1 - 6.0875 z_c2_c3 + [ tauS_c3 * z_c2_c3 ] <= 94.3825
  SyncA_c2_c1_c4: 4.0 o_2 + 100.0 x_c2_c1 - tauD_c1 - 8.0975 z_c2_c4 + [ tauS_c4 * z_c2_c4 ] <= 94.3825
  SyncA_c2_c1_c5: 4.0 o_2 + 100.0 x_c2_c1 - tauD_c1 - 8.7775 z_c2_c5 + [ tauS_c5 * z_c2_c5 ] <= 94.3825
  SyncA_c2_c1_dN: 4.0 o_2 + 100.0 x_c2_c1 - tauD_c1 - 3.2875 z_c2_dN + [ tauS_dN * z_c2_dN ] <= 94.3825
  SyncA_c2_c3_c1: 4.0 o_2 + 100.0 x_c2_c3 - tauD_c3 - 5.6175 z_c2_c1 + [ tauS_c1 * z_c2_c1 ] <= 93.9125
  SyncA_c2_c3_c3: 4.0 o_2 + 100.0 x_c2_c3 - tauD_c3 - 6.0875 z_c2_c3 + [ tauS_c3 * z_c2_c3 ] <= 93.9125
  SyncA_c2_c3_c4: 4.0 o_2 + 100.0 x_c2_c3 - tauD_c3 - 8.0975 z_c2_c4 + [ tauS_c4 * z_c2_c4 ] <= 93.9125
  SyncA_c2_c3_c5: 4.0 o_2 + 100.0 x_c2_c3 - tauD_c3 - 8.7775 z_c2_c5 + [ tauS_c5 * z_c2_c5 ] <= 93.9125
  SyncA_c2_c3_dN: 4.0 o_2 + 100.0 x_c2_c3 - tauD_c3 - 3.2875 z_c2_dN + [ tauS_dN * z_c2_dN ] <= 93.9125
  SyncA_c2_c4_c1: 4.0 o_2 + 100.0 x_c2_c4 - tauD_c4 - 5.6175 z_c2_c1 + [ tauS_c1 * z_c2_c1 ] <= 91.9025
  SyncA_c2_c4_c3: 4.0 o_2 + 100.0 x_c2_c4 - tauD_c4 - 6.0875 z_c2_c3 + [ tauS_c3 * z_c2_c3 ] <= 91.9025
  SyncA_c2_c4_c4: 4.0 o_2 + 100.0 x_c2_c4 - tauD_c4 - 8.0975 z_c2_c4 + [ tauS_c4 * z_c2_c4 ] <= 91.9025
  SyncA_c2_c4_c5: 4.0 o_2 + 100.0 x_c2_c4 - tauD_c4 - 8.7775 z_c2_c5 + [ tauS_c5 * z_c2_c5 ] <= 91.9025
  SyncA_c2_c4_dN: 4.0 o_2 + 100.0 x_c2_c4 - tauD_c4 - 3.2875 z_c2_dN + [ tauS_dN * z_c2_dN ] <= 91.9025
  SyncA_c2_c5_c1: 4.0 o_2 + 100.0 x_c2_c5 - tauD_c5 - 5.6175 z_c2_c1 + [ tauS_c1 * z_c2_c1 ] <= 91.2225
  SyncA_c2_c5_c3: 4.0 o_2 + 100.0 x_c2_c5 - tauD_c5 - 6.0875 z_c2_c3 + [ tauS_c3 * z_c2_c3 ] <= 91.2225
  SyncA_c2_c5_c4: 4.0 o_2 + 100.0 x_c2_c5 - tauD_c5 - 8.0975 z_c2_c4 + [ tauS_c4 * z_c2_c4 ] <= 91.2225
  SyncA_c2_c5_c5: 4.0 o_2 + 100.0 x_c2_c5 - tauD_c5 - 8.7775 z_c2_c5 + [ tauS_c5 * z_c2_c5 ] <= 91.2225
  SyncA_c2_c5_dN: 4.0 o_2 + 100.0 x_c2_c5 - tauD_c5 - 3.2875 z_c2_dN + [ tauS_dN * z_c2_dN ] <= 91.2225
  SyncA_c2_dN_c1: 4.0 o_2 + 100.0 x_c2_dN - tauD_dN - 5.6175 z_c2_c1 + [ tauS_c1 * z_c2_c1 ] <= 96.7125
  SyncA_c2_dN_c3: 4.0 o_2 + 100.0 x_c2_dN - tauD_dN - 6.0875 z_c2_c3 + [ tauS_c3 * z_c2_c3 ] <= 96.7125
  SyncA_c2_dN_c4: 4.0 o_2 + 100.0 x_c2_dN - tauD_dN - 8.0975 z_c2_c4 + [ tauS_c4 * z_c2_c4 ] <= 96.7125
  SyncA_c2_dN_c5: 4.0 o_2 + 100.0 x_c2_dN - tauD_dN - 8.7775 z_c2_c5 + [ tauS_c5 * z_c2_c5 ] <= 96.7125
  SyncA_c2_dN_dN: 4.0 o_2 + 100.0 x_c2_dN - tauD_dN - 3.2875 z_c2_dN + [ tauS_dN * z_c2_dN ] <= 96.7125
  SyncA_c3_c1_c1: 9.0 o_3 + 100.0 x_c3_c1 - tauD_c1 - 7.2875 z_c3_c1 + [ tauS_c1 * z_c3_c1 ] <= 92.7125
  SyncA_c3_c1_c2: 9.0 o_3 + 100.0 x_c3_c1 - tauD_c1 - 6.0875 z_c3_c2 + [ tauS_c2 * z_c3_c2 ] <= 92.7125
  SyncA_c3_c1_c4: 9.0 o_3 + 100.0 x_c3_c1 - tauD_c1 - 10.965 z_c3_c4 + [ tauS_c4 * z_c3_c4 ] <= 92.7125
  SyncA_c3_c1_c5: 9.0 o_3 + 100.0 x_c3_c1 - tauD_c1 - 10.6125 z_c3_c5 + [ tauS_c5 * z_c3_c5 ] <= 92.7125
  SyncA_c3_c1_dN: 9.0 o_3 + 100.0 x_c3_c1 - tauD_c1 - 7.425 z_c3_dN + [ tauS_dN * z_c3_dN ] <= 92.7125
  SyncA_c3_c2_c1: 9.0 o_3 + 100.0 x_c3_c2 - tauD_c2 - 7.2875 z_c3_c1 + [ tauS_c1 * z_c3_c1 ] <= 93.9125
  SyncA_c3_c2_c2: 9.0 o_3 + 100.0 x_c3_c2 - tauD_c2 - 6.0875 z_c3_c2 + [ tauS_c2 * z_c3_c2 ] <= 93.9125
  SyncA_c3_c2_c4: 9.0 o_3 + 100.0 x_c3_c2 - tauD_c2 - 10.965 z_c3_c4 + [ tauS_c4 * z_c3_c4 ] <= 93.9125
  SyncA_c3_c2_c5: 9.0 o_3 + 100.0 x_c3_c2 - tauD_c2 - 10.6125 z_c3_c5 + [ tauS_c5 * z_c3_c5 ] <= 93.9125
  SyncA_c3_c2_dN: 9.0 o_3 + 100.0 x_c3_c2 - tauD_c2 - 7.425 z_c3_dN + [ tauS_dN * z_c3_dN ] <= 93.9125
  SyncA_c3_c4_c1: 9.0 o_3 + 100.0 x_c3_c4 - tauD_c4 - 7.2875 z_c3_c1 + [ tauS_c1 * z_c3_c1 ] <= 89.035
  SyncA_c3_c4_c2: 9.0 o_3 + 100.0 x_c3_c4 - tauD_c4 - 6.0875 z_c3_c2 + [ tauS_c2 * z_c3_c2 ] <= 89.035
  SyncA_c3_c4_c4: 9.0 o_3 + 100.0 x_c3_c4 - tauD_c4 - 10.965 z_c3_c4 + [ tauS_c4 * z_c3_c4 ] <= 89.035
  SyncA_c3_c4_c5: 9.0 o_3 + 100.0 x_c3_c4 - tauD_c4 - 10.6125 z_c3_c5 + [ tauS_c5 * z_c3_c5 ] <= 89.035
  SyncA_c3_c4_dN: 9.0 o_3 + 100.0 x_c3_c4 - tauD_c4 - 7.425 z_c3_dN + [ tauS_dN * z_c3_dN ] <= 89.035
  SyncA_c3_c5_c1: 9.0 o_3 + 100.0 x_c3_c5 - tauD_c5 - 7.2875 z_c3_c1 + [ tauS_c1 * z_c3_c1 ] <= 89.3875
  SyncA_c3_c5_c2: 9.0 o_3 + 100.0 x_c3_c5 - tauD_c5 - 6.0875 z_c3_c2 + [ tauS_c2 * z_c3_c2 ] <= 89.3875
  SyncA_c3_c5_c4: 9.0 o_3 + 100.0 x_c3_c5 - tauD_c5 - 10.965 z_c3_c4 + [ tauS_c4 * z_c3_c4 ] <= 89.3875
  SyncA_c3_c5_c5: 9.0 o_3 + 100.0 x_c3_c5 - tauD_c5 - 10.6125 z_c3_c5 + [ tauS_c5 * z_c3_c5 ] <= 89.3875
  SyncA_c3_c5_dN: 9.0 o_3 + 100.0 x_c3_c5 - tauD_c5 - 7.425 z_c3_dN + [ tauS_dN * z_c3_dN ] <= 89.3875
  SyncA_c3_dN_c1: 9.0 o_3 + 100.0 x_c3_dN - tauD_dN - 7.2875 z_c3_c1 + [ tauS_c1 * z_c3_c1 ] <= 92.575
  SyncA_c3_dN_c2: 9.0 o_3 + 100.0 x_c3_dN - tauD_dN - 6.0875 z_c3_c2 + [ tauS_c2 * z_c3_c2 ] <= 92.575
  SyncA_c3_dN_c4: 9.0 o_3 + 100.0 x_c3_dN - tauD_dN - 10.965 z_c3_c4 + [ tauS_c4 * z_c3_c4 ] <= 92.575
  SyncA_c3_dN_c5: 9.0 o_3 + 100.0 x_c3_dN - tauD_dN - 10.6125 z_c3_c5 + [ tauS_c5 * z_c3_c5 ] <= 92.575
  SyncA_c3_dN_dN: 9.0 o_3 + 100.0 x_c3_dN - tauD_dN - 7.425 z_c3_dN + [ tauS_dN * z_c3_dN ] <= 92.575
  SyncA_c4_c1_c1: 7.0 o_4 + 100.0 x_c4_c1 - tauD_c1 - 3.69 z_c4_c1 + [ tauS_c1 * z_c4_c1 ] <= 96.31
  SyncA_c4_c1_c2: 7.0 o_4 + 100.0 x_c4_c1 - tauD_c1 - 8.0975 z_c4_c2 + [ tauS_c2 * z_c4_c2 ] <= 96.31
  SyncA_c4_c1_c3: 7.0 o_4 + 100.0 x_c4_c1 - tauD_c1 - 10.965 z_c4_c3 + [ tauS_c3 * z_c4_c3 ] <= 96.31
  SyncA_c4_c1_c5: 7.0 o_4 + 100.0 x_c4_c1 - tauD_c1 - 1.7675 z_c4_c5 + [ tauS_c5 * z_c4_c5 ] <= 96.31
  SyncA_c4_c1_dN: 7.0 o_4 + 100.0 x_c4_c1 - tauD_c1 - 4.81 z_c4_dN + [ tauS_dN * z_c4_dN ] <= 96.31
  SyncA_c4_c2_c1: 7.0 o_4 + 100.0 x_c4_c2 - tauD_c2 - 3.69 z_c4_c1 + [ tauS_c1 * z_c4_c1 ] <= 91.9025
  SyncA_c4_c2_c2: 7.0 o_4 + 100.0 x_c4_c2 - tauD_c2 - 8.0975 z_c4_c2 + [ tauS_c2 * z_c4_c2 ] <= 91.9025
  SyncA_c4_c2_c3: 7.0 o_4 + 100.0 x_c4_c2 - tauD_c2 - 10.965 z_c4_c3 + [ tauS_c3 * z_c4_c3 ] <= 91.9025
  SyncA_c4_c2_c5: 7.0 o_4 + 100.0 x_c4_c2 - tauD_c2 - 1.7675 z_c4_c5 + [ tauS_c5 * z_c4_c5 ] <= 91.9025
  SyncA_c4_c2_dN: 7.0 o_4 + 100.0 x_c4_c2 - tauD_c2 - 4.81 z_c4_dN + [ tauS_dN * z_c4_dN ] <= 91.9025
  SyncA_c4_c3_c1: 7.0 o_4 + 100.0 x_c4_c3 - tauD_c3 - 3.69 z_c4_c1 + [ tauS_c1 * z_c4_c1 ] <= 89.035
  SyncA_c4_c3_c2: 7.0 o_4 + 100.0 x_c4_c3 - tauD_c3 - 8.0975 z_c4_c2 + [ tauS_c2 * z_c4_c2 ] <= 89.035
  SyncA_c4_c3_c3: 7.0 o_4 + 100.0 x_c4_c3 - tauD_c3 - 10.965 z_c4_c3 + [ tauS_c3 * z_c4_c3 ] <= 89.035
  SyncA_c4_c3_c5: 7.0 o_4 + 100.0 x_c4_c3 - tauD_c3 - 1.7675 z_c4_c5 + [ tauS_c5 * z_c4_c5 ] <= 89.035
  SyncA_c4_c3_dN: 7.0 o_4 + 100.0 x_c4_c3 - tauD_c3 - 4.81 z_c4_dN + [ tauS_dN * z_c4_dN ] <= 89.035
  SyncA_c4_c5_c1: 7.0 o_4 + 100.0 x_c4_c5 - tauD_c5 - 3.69 z_c4_c1 + [ tauS_c1 * z_c4_c1 ] <= 98.2325
  SyncA_c4_c5_c2: 7.0 o_4 + 100.0 x_c4_c5 - tauD_c5 - 8.0975 z_c4_c2 + [ tauS_c2 * z_c4_c2 ] <= 98.2325
  SyncA_c4_c5_c3: 7.0 o_4 + 100.0 x_c4_c5 - tauD_c5 - 10.965 z_c4_c3 + [ tauS_c3 * z_c4_c3 ] <= 98.2325
  SyncA_c4_c5_c5: 7.0 o_4 + 100.0 x_c4_c5 - tauD_c5 - 1.7675 z_c4_c5 + [ tauS_c5 * z_c4_c5 ] <= 98.2325
  SyncA_c4_c5_dN: 7.0 o_4 + 100.0 x_c4_c5 - tauD_c5 - 4.81 z_c4_dN + [ tauS_dN * z_c4_dN ] <= 98.2325
  SyncA_c4_dN_c1: 7.0 o_4 + 100.0 x_c4_dN - tauD_dN - 3.69 z_c4_c1 + [ tauS_c1 * z_c4_c1 ] <= 95.19
  SyncA_c4_dN_c2: 7.0 o_4 + 100.0 x_c4_dN - tauD_dN - 8.0975 z_c4_c2 + [ tauS_c2 * z_c4_c2 ] <= 95.19
  SyncA_c4_dN_c3: 7.0 o_4 + 100.0 x_c4_dN - tauD_dN - 10.965 z_c4_c3 + [ tauS_c3 * z_c4_c3 ] <= 95.19
  SyncA_c4_dN_c5: 7.0 o_4 + 100.0 x_c4_dN - tauD_dN - 1.7675 z_c4_c5 + [ tauS_c5 * z_c4_c5 ] <= 95.19
  SyncA_c4_dN_dN: 7.0 o_4 + 100.0 x_c4_dN - tauD_dN - 4.81 z_c4_dN + [ tauS_dN * z_c4_dN ] <= 95.19
  SyncA_c5_c1_c1: 8.0 o_5 + 100.0 x_c5_c1 - tauD_c1 - 3.5 z_c5_c1 + [ tauS_c1 * z_c5_c1 ] <= 96.5
  SyncA_c5_c1_c2: 8.0 o_5 + 100.0 x_c5_c1 - tauD_c1 - 8.7775 z_c5_c2 + [ tauS_c2 * z_c5_c2 ] <= 96.5
  SyncA_c5_c1_c3: 8.0 o_5 + 100.0 x_c5_c1 - tauD_c1 - 10.6125 z_c5_c3 + [ tauS_c3 * z_c5_c3 ] <= 96.5
  SyncA_c5_c1_c4: 8.0 o_5 + 100.0 x_c5_c1 - tauD_c1 - 1.7675 z_c5_c4 + [ tauS_c4 * z_c5_c4 ] <= 96.5
  SyncA_c5_c1_dN: 8.0 o_5 + 100.0 x_c5_c1 - tauD_c1 - 5.59 z_c5_dN + [ tauS_dN * z_c5_dN ] <= 96.5
  SyncA_c5_c2_c1: 8.0 o_5 + 100.0 x_c5_c2 - tauD_c2 - 3.5 z_c5_c1 + [ tauS_c1 * z_c5_c1 ] <= 91.2225
  SyncA_c5_c2_c2: 8.0 o_5 + 100.0 x_c5_c2 - tauD_c2 - 8.7775 z_c5_c2 + [ tauS_c2 * z_c5_c2 ] <= 91.2225
  SyncA_c5_c2_c3: 8.0 o_5 + 100.0 x_c5_c2 - tauD_c2 - 10.6125 z_c5_c3 + [ tauS_c3 * z_c5_c3 ] <= 91.2225
  SyncA_c5_c2_c4: 8.0 o_5 + 100.0 x_c5_c2 - tauD_c2 - 1.7675 z_c5_c4 + [ tauS_c4 * z_c5_c4 ] <= 91.2225
  SyncA_c5_c2_dN: 8.0 o_5 + 100.0 x_c5_c2 - tauD_c2 - 5.59 z_c5_dN + [ tauS_dN * z_c5_dN ] <= 91.2225
  SyncA_c5_c3_c1: 8.0 o_5 + 100.0 x_c5_c3 - tauD_c3 - 3.5 z_c5_c1 + [ tauS_c1 * z_c5_c1 ] <= 89.3875
  SyncA_c5_c3_c2: 8.0 o_5 + 100.0 x_c5_c3 - tauD_c3 - 8.7775 z_c5_c2 + [ tauS_c2 * z_c5_c2 ] <= 89.3875
  SyncA_c5_c3_c3: 8.0 o_5 + 100.0 x_c5_c3 - tauD_c3 - 10.6125 z_c5_c3 + [ tauS_c3 * z_c5_c3 ] <= 89.3875
  SyncA_c5_c3_c4: 8.0 o_5 + 100.0 x_c5_c3 - tauD_c3 - 1.7675 z_c5_c4 + [ tauS_c4 * z_c5_c4 ] <= 89.3875
  SyncA_c5_c3_dN: 8.0 o_5 + 100.0 x_c5_c3 - tauD_c3 - 5.59 z_c5_dN + [ tauS_dN * z_c5_dN ] <= 89.3875
  SyncA_c5_c4_c1: 8.0 o_5 + 100.0 x_c5_c4 - tauD_c4 - 3.5 z_c5_c1 + [ tauS_c1 * z_c5_c1 ] <= 98.2325
  SyncA_c5_c4_c2: 8.0 o_5 + 100.0 x_c5_c4 - tauD_c4 - 8.7775 z_c5_c2 + [ tauS_c2 * z_c5_c2 ] <= 98.2325
  SyncA_c5_c4_c3: 8.0 o_5 + 100.0 x_c5_c4 - tauD_c4 - 10.6125 z_c5_c3 + [ tauS_c3 * z_c5_c3 ] <= 98.2325
  SyncA_c5_c4_c4: 8.0 o_5 + 100.0 x_c5_c4 - tauD_c4 - 1.7675 z_c5_c4 + [ tauS_c4 * z_c5_c4 ] <= 98.2325
  SyncA_c5_c4_dN: 8.0 o_5 + 100.0 x_c5_c4 - tauD_c4 - 5.59 z_c5_dN + [ tauS_dN * z_c5_dN ] <= 98.2325
  SyncA_c5_dN_c1: 8.0 o_5 + 100.0 x_c5_dN - tauD_dN - 3.5 z_c5_c1 + [ tauS_c1 * z_c5_c1 ] <= 94.41
  SyncA_c5_dN_c2: 8.0 o_5 + 100.0 x_c5_dN - tauD_dN - 8.7775 z_c5_c2 + [ tauS_c2 * z_c5_c2 ] <= 94.41
  SyncA_c5_dN_c3: 8.0 o_5 + 100.0 x_c5_dN - tauD_dN - 10.6125 z_c5_c3 + [ tauS_c3 * z_c5_c3 ] <= 94.41
  SyncA_c5_dN_c4: 8.0 o_5 + 100.0 x_c5_dN - tauD_dN - 1.7675 z_c5_c4 + [ tauS_c4 * z_c5_c4 ] <= 94.41
  SyncA_c5_dN_dN: 8.0 o_5 + 100.0 x_c5_dN - tauD_dN - 5.59 z_c5_dN + [ tauS_dN * z_c5_dN ] <= 94.41
  SVFirst_c1_c2: tauS_c2 - tauD_c1 + 4.0 o_1 - 100.0 z_c1_c2 >= -82.3825
  SVFirst_c1_c3: tauS_c3 - tauD_c1 + 4.0 o_1 - 100.0 z_c1_c3 >= -80.7125
  SVFirst_c1_c4: tauS_c4 - tauD_c1 + 4.0 o_1 - 100.0 z_c1_c4 >= -84.31
  SVFirst_c1_c5: tauS_c5 - tauD_c1 + 4.0 o_1 - 100.0 z_c1_c5 >= -84.5
  SVFirst_c1_dN:  tauS_dN - tauD_c1 + 4.0 o_1 - 100.0 z_c1_dN >= -85.08500000000001
  SVFirst_c2_c1: tauS_c1 - tauD_c2 + 4.0 o_2 - 100.0 z_c2_c1 >= -82.3825
  SVFirst_c2_c3: tauS_c3 - tauD_c2 + 4.0 o_2 - 100.0 z_c2_c3 >= -81.9125
  SVFirst_c2_c4: tauS_c4 - tauD_c2 + 4.0 o_2 - 100.0 z_c2_c4 >= -79.9025
  SVFirst_c2_c5: tauS_c5 - tauD_c2 + 4.0 o_2 - 100.0 z_c2_c5 >= -79.2225
  SVFirst_c2_dN:  tauS_dN - tauD_c2 + 4.0 o_2 - 100.0 z_c2_dN >= -84.7125
  SVFirst_c3_c1: tauS_c1 - tauD_c3 + 9.0 o_3 - 100.0 z_c3_c1 >= -75.7125
  SVFirst_c3_c2: tauS_c2 - tauD_c3 + 9.0 o_3 - 100.0 z_c3_c2 >= -76.9125
  SVFirst_c3_c4: tauS_c4 - tauD_c3 + 9.0 o_3 - 100.0 z_c3_c4 >= -72.035
  SVFirst_c3_c5: tauS_c5 - tauD_c3 + 9.0 o_3 - 100.0 z_c3_c5 >= -72.3875
  SVFirst_c3_dN:  tauS_dN - tauD_c3 + 9.0 o_3 - 100.0 z_c3_dN >= -75.575
  SVFirst_c4_c1: tauS_c1 - tauD_c4 + 7.0 o_4 - 100.0 z_c4_c1 >= -81.31
  SVFirst_c4_c2: tauS_c2 - tauD_c4 + 7.0 o_4 - 100.0 z_c4_c2 >= -76.9025
  SVFirst_c4_c3: tauS_c3 - tauD_c4 + 7.0 o_4 - 100.0 z_c4_c3 >= -74.035
  SVFirst_c4_c5: tauS_c5 - tauD_c4 + 7.0 o_4 - 100.0 z_c4_c5 >= -83.2325
  SVFirst_c4_dN:  tauS_dN - tauD_c4 + 7.0 o_4 - 100.0 z_c4_dN >= -80.19
  SVFirst_c5_c1: tauS_c1 - tauD_c5 + 8.0 o_5 - 100.0 z_c5_c1 >= -80.5
  SVFirst_c5_c2: tauS_c2 - tauD_c5 + 8.0 o_5 - 100.0 z_c5_c2 >= -75.2225
  SVFirst_c5_c3: tauS_c3 - tauD_c5 + 8.0 o_5 - 100.0 z_c5_c3 >= -73.3875
  SVFirst_c5_c4: tauS_c4 - tauD_c5 + 8.0 o_5 - 100.0 z_c5_c4 >= -82.2325
  SVFirst_c5_dN:  tauS_dN - tauD_c5 + 8.0 o_5 - 100.0 z_c5_dN >= -78.41
  Precedence_Swap_c1:  p_1 - z_d0_c1 - z_c2_c1 - z_c3_c1 - z_c4_c1 - z_c5_c1 = 0
  Precedence_Swap_c2:  p_2 - z_d0_c2 - z_c1_c2 - z_c3_c2 - z_c4_c2 - z_c5_c2 = 0
  Precedence_Swap_c3:  p_3 - z_d0_c3 - z_c1_c3 - z_c2_c3 - z_c4_c3 - z_c5_c3 = 0
  Precedence_Swap_c4:  p_4 - z_d0_c4 - z_c1_c4 - z_c2_c4 - z_c3_c4 - z_c5_c4 = 0
  Precedence_Swap_c5:  p_5 - z_d0_c5 - z_c1_c5 - z_c2_c5 - z_c3_c5 - z_c4_c5 = 0
  Order_c1:  o_1 - p_1 <= 0
  Order_c2:  o_2 - p_2 <= 0
  Order_c3:  o_3 - p_3 <= 0
  Order_c4:  o_4 - p_4 <= 0
  Order_c5:  o_5 - p_5 <= 0
  WorkingTimeS_c1:  tauS_c1 <= 89.085
  WorkingTimeS_c2:  tauS_c2 <= 88.7125
  WorkingTimeS_c3:  tauS_c3 <= 84.575
  WorkingTimeS_c4:  tauS_c4 <= 87.19
  WorkingTimeS_c5:  tauS_c5 <= 86.41
  FreightDV_c1_c2:  k_c2 - kDash_c1 - 10.0 p_1 + 10.0 x_c1_c2 + [ kDash_c1 * p_1 - kDash_c1 * o_1 + 10.0 p_1 * o_1 ] <= 10.0
  FreightDV_c1_c3:  k_c3 - kDash_c1 - 10.0 p_1 + 10.0 x_c1_c3 + [ kDash_c1 * p_1 - kDash_c1 * o_1 + 10.0 p_1 * o_1 ] <= 10.0
  FreightDV_c1_c4:  k_c4 - kDash_c1 - 10.0 p_1 + 10.0 x_c1_c4 + [ kDash_c1 * p_1 - kDash_c1 * o_1 + 10.0 p_1 * o_1 ] <= 10.0
  FreightDV_c1_c5:  k_c5 - kDash_c1 - 10.0 p_1 + 10.0 x_c1_c5 + [ kDash_c1 * p_1 - kDash_c1 * o_1 + 10.0 p_1 * o_1 ] <= 10.0
  FreightDV_c1_dN:  k_dN - kDash_c1 - 10.0 p_1 + 10.0 x_c1_dN + [ kDash_c1 * p_1 - kDash_c1 * o_1 + 10.0 p_1 * o_1 ] <= 10.0
  FreightDV_c1:  kDash_c1 - k_c1 - 10.0 o_1 + [ k_c1 * o_1 ] <= -4.0
  FreightDV_c2_c1:  k_c1 - kDash_c2 - 10.0 p_2 + 10.0 x_c2_c1 + [ kDash_c2 * p_2 - kDash_c2 * o_2 + 10.0 p_2 * o_2 ] <= 10.0
  FreightDV_c2_c3:  k_c3 - kDash_c2 - 10.0 p_2 + 10.0 x_c2_c3 + [ kDash_c2 * p_2 - kDash_c2 * o_2 + 10.0 p_2 * o_2 ] <= 10.0
  FreightDV_c2_c4:  k_c4 - kDash_c2 - 10.0 p_2 + 10.0 x_c2_c4 + [ kDash_c2 * p_2 - kDash_c2 * o_2 + 10.0 p_2 * o_2 ] <= 10.0
  FreightDV_c2_c5:  k_c5 - kDash_c2 - 10.0 p_2 + 10.0 x_c2_c5 + [ kDash_c2 * p_2 - kDash_c2 * o_2 + 10.0 p_2 * o_2 ] <= 10.0
  FreightDV_c2_dN:  k_dN - kDash_c2 - 10.0 p_2 + 10.0 x_c2_dN + [ kDash_c2 * p_2 - kDash_c2 * o_2 + 10.0 p_2 * o_2 ] <= 10.0
  FreightDV_c2:  kDash_c2 - k_c2 - 10.0 o_2 + [ k_c2 * o_2 ] <= -6.0
  FreightDV_c3_c1:  k_c1 - kDash_c3 - 10.0 p_3 + 10.0 x_c3_c1 + [ kDash_c3 * p_3 - kDash_c3 * o_3 + 10.0 p_3 * o_3 ] <= 10.0
  FreightDV_c3_c2:  k_c2 - kDash_c3 - 10.0 p_3 + 10.0 x_c3_c2 + [ kDash_c3 * p_3 - kDash_c3 * o_3 + 10.0 p_3 * o_3 ] <= 10.0
  FreightDV_c3_c4:  k_c4 - kDash_c3 - 10.0 p_3 + 10.0 x_c3_c4 + [ kDash_c3 * p_3 - kDash_c3 * o_3 + 10.0 p_3 * o_3 ] <= 10.0
  FreightDV_c3_c5:  k_c5 - kDash_c3 - 10.0 p_3 + 10.0 x_c3_c5 + [ kDash_c3 * p_3 - kDash_c3 * o_3 + 10.0 p_3 * o_3 ] <= 10.0
  FreightDV_c3_dN:  k_dN - kDash_c3 - 10.0 p_3 + 10.0 x_c3_dN + [ kDash_c3 * p_3 - kDash_c3 * o_3 + 10.0 p_3 * o_3 ] <= 10.0
  FreightDV_c3:  kDash_c3 - k_c3 - 10.0 o_3 + [ k_c3 * o_3 ] <= -5.0
  FreightDV_c4_c1:  k_c1 - kDash_c4 - 10.0 p_4 + 10.0 x_c4_c1 + [ kDash_c4 * p_4 - kDash_c4 * o_4 + 10.0 p_4 * o_4 ] <= 10.0
  FreightDV_c4_c2:  k_c2 - kDash_c4 - 10.0 p_4 + 10.0 x_c4_c2 + [ kDash_c4 * p_4 - kDash_c4 * o_4 + 10.0 p_4 * o_4 ] <= 10.0
  FreightDV_c4_c3:  k_c3 - kDash_c4 - 10.0 p_4 + 10.0 x_c4_c3 + [ kDash_c4 * p_4 - kDash_c4 * o_4 + 10.0 p_4 * o_4 ] <= 10.0
  FreightDV_c4_c5:  k_c5 - kDash_c4 - 10.0 p_4 + 10.0 x_c4_c5 + [ kDash_c4 * p_4 - kDash_c4 * o_4 + 10.0 p_4 * o_4 ] <= 10.0
  FreightDV_c4_dN:  k_dN - kDash_c4 - 10.0 p_4 + 10.0 x_c4_dN + [ kDash_c4 * p_4 - kDash_c4 * o_4 + 10.0 p_4 * o_4 ] <= 10.0
  FreightDV_c4:  kDash_c4 - k_c4 - 10.0 o_4 + [ k_c4 * o_4 ] <= -5.0
  FreightDV_c5_c1:  k_c1 - kDash_c5 - 10.0 p_5 + 10.0 x_c5_c1 + [ kDash_c5 * p_5 - kDash_c5 * o_5 + 10.0 p_5 * o_5 ] <= 10.0
  FreightDV_c5_c2:  k_c2 - kDash_c5 - 10.0 p_5 + 10.0 x_c5_c2 + [ kDash_c5 * p_5 - kDash_c5 * o_5 + 10.0 p_5 * o_5 ] <= 10.0
  FreightDV_c5_c3:  k_c3 - kDash_c5 - 10.0 p_5 + 10.0 x_c5_c3 + [ kDash_c5 * p_5 - kDash_c5 * o_5 + 10.0 p_5 * o_5 ] <= 10.0
  FreightDV_c5_c4:  k_c4 - kDash_c5 - 10.0 p_5 + 10.0 x_c5_c4 + [ kDash_c5 * p_5 - kDash_c5 * o_5 + 10.0 p_5 * o_5 ] <= 10.0
  FreightDV_c5_dN:  k_dN - kDash_c5 - 10.0 p_5 + 10.0 x_c5_dN + [ kDash_c5 * p_5 - kDash_c5 * o_5 + 10.0 p_5 * o_5 ] <= 10.0
  FreightDV_c5:  kDash_c5 - k_c5 - 10.0 o_5 + [ k_c5 * o_5 ] <= -5.0
  FreightSV_c1_c2:  pi_c2 - pi_c1 - kDash_c1 + 20.0 z_c1_c2 + [ kDash_c1 * o_1 - k_c1 * o_1 ] <= 10.0
  FreightSV_c1_c3:  pi_c3 - pi_c1 - kDash_c1 + 20.0 z_c1_c3 + [ kDash_c1 * o_1 - k_c1 * o_1 ] <= 10.0
  FreightSV_c1_c4:  pi_c4 - pi_c1 - kDash_c1 + 20.0 z_c1_c4 + [ kDash_c1 * o_1 - k_c1 * o_1 ] <= 10.0
  FreightSV_c1_c5:  pi_c5 - pi_c1 - kDash_c1 + 20.0 z_c1_c5 + [ kDash_c1 * o_1 - k_c1 * o_1 ] <= 10.0
  FreightSV_c1_dN:  pi_dN - pi_c1 - kDash_c1 + 20.0 z_c1_dN + [ kDash_c1 * o_1 - k_c1 * o_1 ] <= 10.0
  FreightSV_c2_c1:  pi_c1 - pi_c2 - kDash_c2 + 20.0 z_c2_c1 + [ kDash_c2 * o_2 - k_c2 * o_2 ] <= 10.0
  FreightSV_c2_c3:  pi_c3 - pi_c2 - kDash_c2 + 20.0 z_c2_c3 + [ kDash_c2 * o_2 - k_c2 * o_2 ] <= 10.0
  FreightSV_c2_c4:  pi_c4 - pi_c2 - kDash_c2 + 20.0 z_c2_c4 + [ kDash_c2 * o_2 - k_c2 * o_2 ] <= 10.0
  FreightSV_c2_c5:  pi_c5 - pi_c2 - kDash_c2 + 20.0 z_c2_c5 + [ kDash_c2 * o_2 - k_c2 * o_2 ] <= 10.0
  FreightSV_c2_dN:  pi_dN - pi_c2 - kDash_c2 + 20.0 z_c2_dN + [ kDash_c2 * o_2 - k_c2 * o_2 ] <= 10.0
  FreightSV_c3_c1:  pi_c1 - pi_c3 - kDash_c3 + 20.0 z_c3_c1 + [ kDash_c3 * o_3 - k_c3 * o_3 ] <= 10.0
  FreightSV_c3_c2:  pi_c2 - pi_c3 - kDash_c3 + 20.0 z_c3_c2 + [ kDash_c3 * o_3 - k_c3 * o_3 ] <= 10.0
  FreightSV_c3_c4:  pi_c4 - pi_c3 - kDash_c3 + 20.0 z_c3_c4 + [ kDash_c3 * o_3 - k_c3 * o_3 ] <= 10.0
  FreightSV_c3_c5:  pi_c5 - pi_c3 - kDash_c3 + 20.0 z_c3_c5 + [ kDash_c3 * o_3 - k_c3 * o_3 ] <= 10.0
  FreightSV_c3_dN:  pi_dN - pi_c3 - kDash_c3 + 20.0 z_c3_dN + [ kDash_c3 * o_3 - k_c3 * o_3 ] <= 10.0
  FreightSV_c4_c1:  pi_c1 - pi_c4 - kDash_c4 + 20.0 z_c4_c1 + [ kDash_c4 * o_4 - k_c4 * o_4 ] <= 10.0
  FreightSV_c4_c2:  pi_c2 - pi_c4 - kDash_c4 + 20.0 z_c4_c2 + [ kDash_c4 * o_4 - k_c4 * o_4 ] <= 10.0
  FreightSV_c4_c3:  pi_c3 - pi_c4 - kDash_c4 + 20.0 z_c4_c3 + [ kDash_c4 * o_4 - k_c4 * o_4 ] <= 10.0
  FreightSV_c4_c5:  pi_c5 - pi_c4 - kDash_c4 + 20.0 z_c4_c5 + [ kDash_c4 * o_4 - k_c4 * o_4 ] <= 10.0
  FreightSV_c4_dN:  pi_dN - pi_c4 - kDash_c4 + 20.0 z_c4_dN + [ kDash_c4 * o_4 - k_c4 * o_4 ] <= 10.0
  FreightSV_c5_c1:  pi_c1 - pi_c5 - kDash_c5 + 20.0 z_c5_c1 + [ kDash_c5 * o_5 - k_c5 * o_5 ] <= 10.0
  FreightSV_c5_c2:  pi_c2 - pi_c5 - kDash_c5 + 20.0 z_c5_c2 + [ kDash_c5 * o_5 - k_c5 * o_5 ] <= 10.0
  FreightSV_c5_c3:  pi_c3 - pi_c5 - kDash_c5 + 20.0 z_c5_c3 + [ kDash_c5 * o_5 - k_c5 * o_5 ] <= 10.0
  FreightSV_c5_c4:  pi_c4 - pi_c5 - kDash_c5 + 20.0 z_c5_c4 + [ kDash_c5 * o_5 - k_c5 * o_5 ] <= 10.0
  FreightSV_c5_dN:  pi_dN - pi_c5 - kDash_c5 + 20.0 z_c5_dN + [ kDash_c5 * o_5 - k_c5 * o_5 ] <= 10.0
  FuelDV_d0_c1:  phi_c1 - phi_d0 + 12.780100000000001 x_d0_c1 <= 12.0
  FuelDV_d0_c2:  phi_c2 - phi_d0 + 12.8797 x_d0_c2 <= 12.0
  FuelDV_d0_c3:  phi_c3 - phi_d0 + 13.9869 x_d0_c3 <= 12.0
  FuelDV_d0_c4:  phi_c4 - phi_d0 + 13.2872 x_d0_c4 <= 12.0
  FuelDV_d0_c5:  phi_c5 - phi_d0 + 13.4959 x_d0_c5 <= 12.0
  FuelDV_c1_c2:  phi_c2 - phi_c1 + 13.5032 x_c1_c2 <= 12.0
  FuelDV_c1_c3:  phi_c3 - phi_c1 + 13.950099999999999 x_c1_c3 <= 12.0
  FuelDV_c1_c4:  phi_c4 - phi_c1 + 12.987400000000001 x_c1_c4 <= 12.0
  FuelDV_c1_c5:  phi_c5 - phi_c1 + 12.9366 x_c1_c5 <= 12.0
  FuelDV_c1_dN:  phi_dN - phi_c1 + 12.780100000000001 x_c1_dN <= 12.0
  FuelDV_c2_c1:  phi_c1 - phi_c2 + 13.5032 x_c2_c1 <= 12.0
  FuelDV_c2_c3:  phi_c3 - phi_c2 + 13.629 x_c2_c3 <= 12.0
  FuelDV_c2_c4:  phi_c4 - phi_c2 + 14.1669 x_c2_c4 <= 12.0
  FuelDV_c2_c5:  phi_c5 - phi_c2 + 14.3489 x_c2_c5 <= 12.0
  FuelDV_c2_dN:  phi_dN - phi_c2 + 12.8797 x_c2_dN <= 12.0
  FuelDV_c3_c1:  phi_c1 - phi_c3 + 13.950099999999999 x_c3_c1 <= 12.0
  FuelDV_c3_c2:  phi_c2 - phi_c3 + 13.629 x_c3_c2 <= 12.0
  FuelDV_c3_c4:  phi_c4 - phi_c3 + 14.9342 x_c3_c4 <= 12.0
  FuelDV_c3_c5:  phi_c5 - phi_c3 + 14.8399 x_c3_c5 <= 12.0
  FuelDV_c3_dN:  phi_dN - phi_c3 + 13.9869 x_c3_dN <= 12.0
  FuelDV_c4_c1:  phi_c1 - phi_c4 + 12.987400000000001 x_c4_c1 <= 12.0
  FuelDV_c4_c2:  phi_c2 - phi_c4 + 14.1669 x_c4_c2 <= 12.0
  FuelDV_c4_c3:  phi_c3 - phi_c4 + 14.9342 x_c4_c3 <= 12.0
  FuelDV_c4_c5:  phi_c5 - phi_c4 + 12.473 x_c4_c5 <= 12.0
  FuelDV_c4_dN:  phi_dN - phi_c4 + 13.2872 x_c4_dN <= 12.0
  FuelDV_c5_c1:  phi_c1 - phi_c5 + 12.9366 x_c5_c1 <= 12.0
  FuelDV_c5_c2:  phi_c2 - phi_c5 + 14.3489 x_c5_c2 <= 12.0
  FuelDV_c5_c3:  phi_c3 - phi_c5 + 14.8399 x_c5_c3 <= 12.0
  FuelDV_c5_c4:  phi_c4 - phi_c5 + 12.473 x_c5_c4 <= 12.0
  FuelDV_c5_dN:  phi_dN - phi_c5 + 13.4959 x_c5_dN <= 12.0
  WorkingTimeD_c1:  tauD_c1 + 8.0 p_1 <= 93.085
  WorkingTimeD_c2:  tauD_c2 + 8.0 p_2 <= 92.7125
  WorkingTimeD_c3:  tauD_c3 + 8.0 p_3 <= 83.575
  WorkingTimeD_c4:  tauD_c4 + 8.0 p_4 <= 88.19
  WorkingTimeD_c5:  tauD_c5 + 8.0 p_5 <= 86.41
Bounds
0 <= kDash_c1 <= 10.0
0 <= kDash_c2 <= 10.0
0 <= kDash_c3 <= 10.0
0 <= kDash_c4 <= 10.0
0 <= kDash_c5 <= 10.0
0 <= kDash_dN <= 10.0
0 <= k_c1 <= 10.0
0 <= k_c2 <= 10.0
0 <= k_c3 <= 10.0
0 <= k_c4 <= 10.0
0 <= k_c5 <= 10.0
0 <= k_dN <= 10.0
0 <= phi_c1 <= 12.0
0 <= phi_c2 <= 12.0
0 <= phi_c3 <= 12.0
0 <= phi_c4 <= 12.0
0 <= phi_c5 <= 12.0
0 <= phi_d0 <= 12.0
0 <= phi_dN <= 12.0
0 <= pi_c1 <= 50.0
0 <= pi_c2 <= 50.0
0 <= pi_c3 <= 50.0
0 <= pi_c4 <= 50.0
0 <= pi_c5 <= 50.0
0 <= pi_dN <= 50.0
0 <= tauD_c1 <= 100.0
0 <= tauD_c2 <= 100.0
0 <= tauD_c3 <= 100.0
0 <= tauD_c4 <= 100.0
0 <= tauD_c5 <= 100.0
0 <= tauD_d0 <= 100.0
0 <= tauD_dN <= 100.0
0 <= tauS_c1 <= 100.0
0 <= tauS_c2 <= 100.0
0 <= tauS_c3 <= 100.0
0 <= tauS_c4 <= 100.0
0 <= tauS_c5 <= 100.0
0 <= tauS_d0 <= 100.0
0 <= tauS_dN <= 100.0
Generals
  kDash_c1
  kDash_c2
  kDash_c3
  kDash_c4
  kDash_c5
  kDash_dN
  k_c1
  k_c2
  k_c3
  k_c4
  k_c5
  k_dN
  phi_c1
  phi_c2
  phi_c3
  phi_c4
  phi_c5
  phi_d0
  phi_dN
  pi_c1
  pi_c2
  pi_c3
  pi_c4
  pi_c5
  pi_dN
  tauD_c1
  tauD_c2
  tauD_c3
  tauD_c4
  tauD_c5
  tauD_d0
  tauD_dN
  tauS_c1
  tauS_c2
  tauS_c3
  tauS_c4
  tauS_c5
  tauS_d0
  tauS_dN
Binary
  o_1
  o_2
  o_3
  o_4
  o_5
  p_1
  p_2
  p_3
  p_4
  p_5
  x_c1_c2
  x_c1_c3
  x_c1_c4
  x_c1_c5
  x_c1_dN
  x_c2_c1
  x_c2_c3
  x_c2_c4
  x_c2_c5
  x_c2_dN
  x_c3_c1
  x_c3_c2
  x_c3_c4
  x_c3_c5
  x_c3_dN
  x_c4_c1
  x_c4_c2
  x_c4_c3
  x_c4_c5
  x_c4_dN
  x_c5_c1
  x_c5_c2
  x_c5_c3
  x_c5_c4
  x_c5_dN
  x_d0_c1
  x_d0_c2
  x_d0_c3
  x_d0_c4
  x_d0_c5
  z_c1_c2
  z_c1_c3
  z_c1_c4
  z_c1_c5
  z_c1_dN
  z_c2_c1
  z_c2_c3
  z_c2_c4
  z_c2_c5
  z_c2_dN
  z_c3_c1
  z_c3_c2
  z_c3_c4
  z_c3_c5
  z_c3_dN
  z_c4_c1
  z_c4_c2
  z_c4_c3
  z_c4_c5
  z_c4_dN
  z_c5_c1
  z_c5_c2
  z_c5_c3
  z_c5_c4
  z_c5_dN
  z_d0_c1
  z_d0_c2
  z_d0_c3
  z_d0_c4
  z_d0_c5
End
