VRPTWMS/instances/mip/freight/5/N5-C_DV10-C_SV50_F12_15_No_1.log

Gurobi 6.0.4 (win64) logging started 06/13/15 23:06:36

Warning: unknown variable 'kDash_dN' in bounds section
Read LP format model from file C:\MT\repository\VRPTWMS\instances\mip\freight\N5-C_DV10-C_SV50_F12_15_No_1.lp
Reading time = 0.00 seconds
(null): 161 rows, 110 columns, 603 nonzeros
Optimize a model with 161 rows, 110 columns and 603 nonzeros
Model has 180 quadratic constraints
WARNING: Only barrier available for SOCP models
Coefficient statistics:
  Matrix range    [1e+00, 1e+02]
  Objective range [7e+00, 1e+03]
  Bounds range    [1e+00, 1e+02]
  RHS range       [1e+00, 1e+02]
Presolve removed 21 rows and 9 columns
Presolve time: 0.02s
Presolved: 595 rows, 341 columns, 2566 nonzeros
Variable types: 215 continuous, 126 integer (92 binary)
Found heuristic solution: objective 5192.2200000
Optimize a model with 595 rows, 341 columns and 2566 nonzeros
Coefficient statistics:
  Matrix range    [1e+00, 1e+02]
  Objective range [7e+00, 1e+03]
  Bounds range    [1e+00, 1e+02]
  RHS range       [1e+00, 1e+02]
Presolve removed 26 rows and 15 columns
Presolved: 569 rows, 328 columns, 2445 nonzeros


Root relaxation: objective 1.091729e+02, 81 iterations, 0.00 seconds

    Nodes    |    Current Node    |     Objective Bounds      |     Work
 Expl Unexpl |  Obj  Depth IntInf | Incumbent    BestBd   Gap | It/Node Time

     0     0  109.17291    0   60 5192.22000  109.17291  97.9%     -    0s
H    0     0                    4176.0800000  109.17291  97.4%     -    0s
     0     0  141.80500    0   19 4176.08000  141.80500  96.6%     -    0s
H    0     0                    3166.4700000  141.80500  95.5%     -    0s
     0     0  298.93891    0   65 3166.47000  298.93891  90.6%     -    0s
     0     0  305.14615    0   71 3166.47000  305.14615  90.4%     -    0s
     0     0  318.77190    0   54 3166.47000  318.77190  89.9%     -    0s
     0     0  321.53250    0   62 3166.47000  321.53250  89.8%     -    0s
     0     0  321.53250    0   66 3166.47000  321.53250  89.8%     -    0s
     0     0  321.53250    0   55 3166.47000  321.53250  89.8%     -    0s
H    0     0                    3155.3500000  321.53250  89.8%     -    0s
     0     0  321.53250    0   51 3155.35000  321.53250  89.8%     -    0s
     0     0  321.53250    0   52 3155.35000  321.53250  89.8%     -    0s
     0     0  321.53250    0   46 3155.35000  321.53250  89.8%     -    0s
H    0     0                    3145.4800000  321.53250  89.8%     -    0s
     0     0  321.53250    0   55 3145.48000  321.53250  89.8%     -    0s
     0     0  321.53250    0   46 3145.48000  321.53250  89.8%     -    0s
     0     2  321.53250    0   45 3145.48000  321.53250  89.8%     -    0s
*  239    67              11    2194.1800000 1166.95285  46.8%  30.5    0s
*  766    64              15    2191.7600000 2141.30910  2.30%  28.5    0s

Cutting planes:
  Learned: 1
  Gomory: 3
  Cover: 51
  Implied bound: 92
  Clique: 26
  MIR: 83
  Flow cover: 5
  GUB cover: 9
  Zero half: 3
  Mod-K: 1

Explored 1070 nodes (26757 simplex iterations) in 0.74 seconds
Thread count was 2 (of 4 available processors)

Optimal solution found (tolerance 1.00e-04)
Best objective 2.191760000000e+03, best bound 2.191760000000e+03, gap 0.0%
k_c1	10.0
k_c2	-0.0
k_c3	6.0
k_c4	0.0
k_c5	5.0
k_dN	-0.0
kDash_c1	6.0
kDash_c2	4.0
kDash_c3	1.0
kDash_c4	5.0
kDash_c5	0.0
kDash_dN	-0.0
o_1	0.0
o_2	1.0
o_3	-0.0
o_4	1.0
o_5	0.0
p_1	-0.0
p_2	1.0
p_3	-0.0
p_4	1.0
p_5	0.0
phi_c1	11.0
phi_c2	7.0
phi_c3	9.0
phi_c4	3.0
phi_c5	2.0
phi_d0	12.0
phi_dN	-0.0
pi_c1	50.0
pi_c2	50.0
pi_c3	50.0
pi_c4	40.0
pi_c5	45.0
pi_dN	-0.0
tauD_c1	3.0
tauD_c2	46.0
tauD_c3	30.0
tauD_c4	67.0
tauD_c5	86.0
tauD_d0	-0.0
tauD_dN	100.0
tauS_c1	89.0
tauS_c2	11.0
tauS_c3	84.0
tauS_c4	63.0
tauS_c5	3.0
tauS_d0	-0.0
tauS_dN	80.0
x_c1_c3	1.0
x_c2_c4	1.0
x_c3_c2	1.0
x_c4_c5	1.0
x_c5_dN	1.0
x_d0_c1	1.0
z_c2_c4	1.0
z_c4_dN	1.0
z_d0_c2	1.0
